ITEM = _(1..40);
capacity = 1010;
profits = [23, 20, 23, 69, 59, 35, 34, 26, 42, 20, 85, 73, 61, 31, 38, 99, 35, 34, 23, 23, 30, 27, 27, 78, 43, 51, 31, 21, 21, 38, 46, 57, 20, 86, 28, 57, 35, 21, 23, 24];
weights = [14, 13, 17, 60, 57, 52, 31, 38, 40, 10, 98, 98, 88, 35, 58, 93, 77, 74, 48, 13, 71, 23, 78, 85, 74, 53, 40, 13, 12, 40, 60, 59, 38, 93, 51, 65, 32, 12, 14, 93];
